N = 6;
M = 12;
Edge_Start = [1, 1, 2, 3, 4, 5, 2, 4, 3, 6, 5, 6];
Edge_End = [2, 4, 3, 6, 5, 6, 1, 1, 2, 3, 4, 5];
L = [1, 1, 1, 1, 1, 1, 1, 1, 1, 1, 1, 1];
T = [1, 1, 1, 1, 1, 1, 1, 1, 1, 1, 1, 1];
Lower_Bound = [0, 1, 2, 1, 2, 3];
Upper_Bound = [0, 1, 2, 1, 2, 3];
Start = 1;
End = 6;
Time = 3;
